Route #1: 29 37 40 42 4 17 5 43 16 13 26 3 1 23
Route #2: 21 8 31 25 38 28 18 22 34 11 14 6 9
Route #3: 36 15 32
Route #4: 2 45 7 20 35 12 41 27 19 44 33
Route #5: 10 39 24 30
Route #6: 
cost 1380.4519099460342
